20J6M/DAT/20J6MNLL-15.dat
20 6
32.525 32.525
24.9373 24.9373
20.2362 20.2362
25.0551 25.0551
28.382 28.382
25.0982 25.0982
21.7893 21.7893
23.3243 23.3243
28.7077 28.7077
28.1114 28.1114
22.4888 22.4888
25.1522 25.1522
17.1059 17.1059
27.0986 27.0986
27.3917 27.3917
26.137 26.137
26.1324 26.1324
28.0908 28.0908
29.3689 29.3689
15.8941 15.8941
83.8378