20J6M/SOL/20J6MNLL-15.sol
solution status: optimal solution found
objective value:                     83.8377999999999
x#1#2                               0.941749423520363 	(obj:0)
x#1#6                               0.058247501921597 	(obj:0)
x#2#2                              0.0995897711460362 	(obj:0)
x#2#3                               0.900410228853964 	(obj:0)
x#3#4                                               1 	(obj:0)
x#4#4                                               1 	(obj:0)
x#5#1                               0.445986893101258 	(obj:0)
x#5#2                               0.554013106898742 	(obj:0)
x#6#5                                               1 	(obj:0)
x#7#3                                               1 	(obj:0)
x#8#5                                               1 	(obj:0)
x#9#6                                               1 	(obj:0)
x#10#1                                              1 	(obj:0)
x#11#3                                              1 	(obj:0)
x#12#2                              0.223877036601174 	(obj:0)
x#12#5                              0.776122963398826 	(obj:0)
x#13#3                                              1 	(obj:0)
x#14#6                                              1 	(obj:0)
x#15#4                                              1 	(obj:0)
x#16#6                                              1 	(obj:0)
x#17#1                                              1 	(obj:0)
x#18#1                              0.602902017742466 	(obj:0)
x#18#4                              0.397097982257534 	(obj:0)
x#19#2                                              1 	(obj:0)
x#20#5                                              1 	(obj:0)
z                                    83.8377999999999 	(obj:1)
